# B3LYP/6-31G(d) opt=z-matrix freq=noraman test

 3,4-boxmmc

0 1
H  
C   1 B1
C   2 B2 1 A2
H   3 B3 2 A3 1 D3
C   3 B4 2 A4 1 D4
C   5 B5 3 A5 2 D5
C   6 B6 5 A6 3 D6
H   7 B7 6 A7 5 D7
C   7 B8 6 A8 5 D8
C   9 B9 7 A9 6 D9
C   10 B10 9 A10 7 D10
C   11 B11 10 A11 9 D11
H   12 B12 11 A12 10 D12
H   12 B13 11 A13 10 D13
H   12 B14 11 A14 10 D14
N   11 B15 10 A15 9 D15
H   11 B16 10 A16 9 D16
C   16 B17 11 A17 10 D17
H   16 B18 11 A18 10 D18
H   18 B19 16 A19 11 D19
H   18 B20 16 A20 11 D20
H   18 B21 16 A21 11 D21
O   10 B22 9 A22 7 D22
C   5 B23 3 A23 2 D23
C   6 B24 5 A24 3 D24
H   24 B25 5 A25 3 D25
H   24 B26 5 A26 3 D26
H   25 B27 6 A27 5 D27
H   25 B28 6 A28 5 D28
Variables:
B1        1.08560
B2        1.40118
A2      117.32488
B3        1.08465
A3      121.29336
D3        0.33909
B4        1.37341
A4      117.47707
D4      180.46721
B5        1.37120
A5      122.02353
D5        0.06879
B6        1.37560
A6      122.07016
D6      359.90566
B7        1.08590
A7      120.55234
D7      179.95681
B8        1.40573
A8      117.87492
D8      359.97885
B9        1.49836
A9      117.56492
D9      180.09035
B10        1.53950
A10      119.83205
D10      176.96605
B11        1.52680
A11      109.09627
D11       86.76823
B12        1.09493
A12      111.22125
D12      298.64275
B13        1.09560
A13      111.03698
D13      178.76986
B14        1.09650
A14      111.54474
D14       58.11183
B15        1.48232
A15      110.06681
D15      204.86020
B16        1.09381
A16      111.21845
D16      325.30279
B17        1.45888
A17      111.83628
D17       75.69515
B18        1.02622
A18      106.93199
D18      317.64687
B19        1.09475
A19      111.02769
D19       62.10969
B20        1.09437
A20      112.25170
D20      299.77438
B21        1.09447
A21      109.23843
D21      180.35121
B22        1.23437
A22      118.92530
D22      356.08757
B23        1.50061
A23      144.30761
D23      179.91511
B24        1.50022
A24       93.72484
D24      179.83450
B25        1.09551
A25      116.31503
D25       65.04511
B26        1.09548
A26      116.32913
D26      295.37796
B27        1.09551
A27      116.32050
D27      244.92765
B28        1.09546
A28      116.34210
D28      115.24059

