# B3LYP/6-31G(d) opt=z-matrix freq=noraman test

 3mmc

0 1
H  
C   1 B1
C   2 B2 1 A2
H   3 B3 2 A3 1 D3
C   3 B4 2 A4 1 D4
H   5 B5 3 A5 2 D5
C   5 B6 3 A6 2 D6
C   7 B7 5 A7 3 D7
H   8 B8 7 A8 5 D8
C   2 B9 1 A9 3 D9
C   10 B10 2 A10 1 D10
C   11 B11 10 A11 2 D11
C   12 B12 11 A12 10 D12
H   13 B13 12 A13 11 D13
H   13 B14 12 A14 11 D14
H   13 B15 12 A15 11 D15
N   12 B16 11 A16 10 D16
H   12 B17 11 A17 10 D17
C   17 B18 12 A18 11 D18
H   17 B19 12 A19 11 D19
H   19 B20 17 A20 12 D20
H   19 B21 17 A21 12 D21
H   19 B22 17 A22 12 D22
O   11 B23 10 A23 2 D23
C   7 B24 5 A24 3 D24
H   25 B25 7 A25 5 D25
H   25 B26 7 A26 5 D26
H   25 B27 7 A27 5 D27
Variables:
B1        1.08493
B2        1.39755
A2      117.57530
B3        1.08779
A3      119.94760
D3        0.05707
B4        1.39455
A4      120.35306
D4      180.33535
B5        1.08821
A5      119.33853
D5      179.44339
B6        1.39776
A6      120.33592
D6      359.44715
B7        1.40208
A7      119.03984
D7        1.18790
B8        1.08984
A8      119.28836
D8      178.78591
B9        1.39945
A9      122.23158
D9      180.50923
B10        1.49856
A10      123.08377
D10      359.95264
B11        1.54024
A11      119.78458
D11        1.21884
B12        1.52687
A12      109.13226
D12       84.00788
B13        1.09492
A13      111.23206
D13      298.22159
B14        1.09561
A14      111.04900
D14      178.38687
B15        1.09649
A15      111.53380
D15       57.71032
B16        1.48252
A16      110.09994
D16      202.06590
B17        1.09377
A17      111.17418
D17      322.53029
B18        1.45889
A18      111.82187
D18       76.42822
B19        1.02625
A19      106.90319
D19      318.46712
B20        1.09475
A20      111.01364
D20       62.35841
B21        1.09434
A21      112.26171
D21      300.01995
B22        1.09449
A22      109.23222
D22      180.57770
B23        1.23417
A23      118.94850
D23      179.91747
B24        1.50032
A24      120.57538
D24      178.26598
B25        1.09507
A25      110.94118
D25       30.21954
B26        1.09434
A26      109.97131
D26      269.77026
B27        1.09505
A27      110.85885
D27      149.25665

