# B3LYP/6-31G(d) POP=NBO

 3mmc

0 1
H  
C   1 B1
C   2 B2 1 A2
H   3 B3 2 A3 1 D3
C   3 B4 2 A4 1 D4
H   5 B5 3 A5 2 D5
C   5 B6 3 A6 2 D6
C   7 B7 5 A7 3 D7
H   8 B8 7 A8 5 D8
C   2 B9 1 A9 3 D9
C   10 B10 2 A10 1 D10
C   11 B11 10 A11 2 D11
C   12 B12 11 A12 10 D12
H   13 B13 12 A13 11 D13
H   13 B14 12 A14 11 D14
H   13 B15 12 A15 11 D15
N   12 B16 11 A16 10 D16
H   12 B17 11 A17 10 D17
C   17 B18 12 A18 11 D18
H   17 B19 12 A19 11 D19
H   19 B20 17 A20 12 D20
H   19 B21 17 A21 12 D21
H   19 B22 17 A22 12 D22
O   11 B23 10 A23 2 D23
C   7 B24 5 A24 3 D24
H   25 B25 7 A25 5 D25
H   25 B26 7 A26 5 D26
H   25 B27 7 A27 5 D27
Variables:
 B1  1.0849        
 B2  1.3953        
 A2  119.2121        
 B3  1.0866        
 A3  119.855         
 D3 -0.0543        
 B4  1.3933        
 A4  120.2468        
 D4  179.9185        
 B5  1.0881        
 A5  119.5796        
 D5  180.0142        
 B6  1.4047         
 A6  120.9978        
 D6  59.9935        
 B7  1.3944        
 A7  118.1085       
 D7  0.0644        
 B8  1.0859        
 A8  120.5446        
 D8  179.9743        
 B9  1.4021        
 A9  120.9163      
 D9  179.9596        
 B10 1.4985        
 A10 123.1513        
 D10 359.8496        
 B11 1.5475       
 A11 120.8779        
 D11 3.9256        
 B12 1.5409        
 A12 108.6359        
 D12 82.0681      
 B13 1.0952        
 A13 111.9761        
 D13 301.2003        
 B14 1.0935        
 A14 109.3203        
 D14 180.0309        
 B15 1.0962        
 A15 110.0469    
 D15 61.2529        
 B16 1.4578        
 A16 112.377        
 D16 203.5941       
 B17 1.0963        
 A17 109.7908       
 D17 323.0628        
 B18 1.4636        
 A18 113.6746        
 D18 72.7037        
 B19 1.0203        
 A19 106.8192      
 D19 313.5708        
 B20 1.0967        
 A20 109.3155        
 D20 65.2079        
 B21 1.1032        
 A21 114.6732        
 D21 303.571         
 B22 1.0949        
 A22 108.9035        
 D22 182.4495        
 B23 1.2245        
 A23 120.58       
 D23 181.6693         
 B24 1.5113        
 A24 120.6305        
 D24 180.2678        
 B25 1.0973        
 A25 111.3047        
 D25 63.021         
 B26 1.0969        
 A26 111.3788        
 D26 303.6458        
 B27 1.094         
 A27 111.305         
 D27 183.2249
 
