# B3LYP/6-31G(d) POP=NBO

 3,4-boxmmc

0 1
H  
C   1 B1
C   2 B2 1 A2
H   3 B3 2 A3 1 D3
C   3 B4 2 A4 1 D4
C   5 B5 3 A5 2 D5
C   6 B6 5 A6 3 D6
H   7 B7 6 A7 5 D7
C   7 B8 6 A8 5 D8
C   9 B9 7 A9 6 D9
C   10 B10 9 A10 7 D10
C   11 B11 10 A11 9 D11
H   12 B12 11 A12 10 D12
H   12 B13 11 A13 10 D13
H   12 B14 11 A14 10 D14
N   11 B15 10 A15 9 D15
H   11 B16 10 A16 9 D16
C   16 B17 11 A17 10 D17
H   16 B18 11 A18 10 D18
H   18 B19 16 A19 11 D19
H   18 B20 16 A20 11 D20
H   18 B21 16 A21 11 D21
O   10 B22 9 A22 7 D22
C   5 B23 3 A23 2 D23
C   6 B24 5 A24 3 D24
H   24 B25 5 A25 3 D25
H   24 B26 5 A26 3 D26
H   25 B27 6 A27 5 D27
H   25 B28 6 A28 5 D28
Variables:
B1  1.085       
B2  1.4025      
A2  118.3093      
B3  1.0868       
A3  120.6245      
D3  0.0336       
B4  1.3868       
A4  116.0709      
D4  179.9614      
B5  1.3981       
A5  122.1801    
D5  0.0613       
B6  1.3811       
A6  122.3908    
D6  359.9446      
B7  1.0853       
A7  124.4885       
D7  180.0933       
B8  1.4142       
A8  116.6128    
D8  360.0163      
B9  1.4977       
A9  117.2413      
D9  180.2516      
B10  1.549       
A10  121.2318      
D10  183.8571      
B11  1.5407       
A11  108.6361      
D11  82.1719       
B12  1.0952       
A12  111.9529      
D12  300.9775      
B13  1.0936       
A13  109.3632      
D13  179.7782      
B14  1.0962       
A14  110.0188      
D14  60.9903       
B15  1.4581      
A15  112.3108       
D15  203.6184       
B16  1.0962      
A16  109.9257      
D16  323.0532      
B17  1.4636       
A17  113.6385      
D17  72.8124       
B18  1.0203       
A18  106.723       
D18  313.7897      
B19  1.0967       
A19  109.32       
D19  65.1546       
B20  1.1032       
A20  114.6704       
D20  303.5242       
B21  1.0949       
A21  108.9122      
D21  182.401       
B22  1.2252       
A22  120.43        
D22  361.5336       
B23  1.5216       
A23  144.3421      
D23  180.0672       
B24  1.5234       
A24  93.43        
D24  179.971       
B25  1.0957       
A25  115.5725       
D25  64.1249       
B26  1.0957       
A26  115.5883      
D26  295.9593       
B27  1.0954       
A27  115.6642      
D27  244.2791     
B28  1.0954       
A28  115.6791       
D28  115.8052    
 